
n_res = 4;
rcap = [79, 84, 500, 430];
rtype = [1, 1, 2, 2];
n_tasks = 50;
modes =  [{1, 2, 3, 4, 5, 6}, {7, 8, 9, 10, 11, 12}, {13, 14, 15, 16, 17, 18}, {19, 20, 21, 22, 23, 24}, {25, 26, 27, 28, 29, 30}, {31, 32, 33, 34, 35, 36}, {37, 38, 39, 40, 41, 42}, {43, 44, 45, 46, 47, 48}, {49, 50, 51, 52, 53, 54}, {55, 56, 57, 58, 59, 60}, {61, 62, 63, 64, 65, 66}, {67, 68, 69, 70, 71, 72}, {73, 74, 75, 76, 77, 78}, {79, 80, 81, 82, 83, 84}, {85, 86, 87, 88, 89, 90}, {91, 92, 93, 94, 95, 96}, {97, 98, 99, 100, 101, 102}, {103, 104, 105, 106, 107, 108}, {109, 110, 111, 112, 113, 114}, {115, 116, 117, 118, 119, 120}, {121, 122, 123, 124, 125, 126}, {127, 128, 129, 130, 131, 132}, {133, 134, 135, 136, 137, 138}, {139, 140, 141, 142, 143, 144}, {145, 146, 147, 148, 149, 150}, {151, 152, 153, 154, 155, 156}, {157, 158, 159, 160, 161, 162}, {163, 164, 165, 166, 167, 168}, {169, 170, 171, 172, 173, 174}, {175, 176, 177, 178, 179, 180}, {181, 182, 183, 184, 185, 186}, {187, 188, 189, 190, 191, 192}, {193, 194, 195, 196, 197, 198}, {199, 200, 201, 202, 203, 204}, {205, 206, 207, 208, 209, 210}, {211, 212, 213, 214, 215, 216}, {217, 218, 219, 220, 221, 222}, {223, 224, 225, 226, 227, 228}, {229, 230, 231, 232, 233, 234}, {235, 236, 237, 238, 239, 240}, {241, 242, 243, 244, 245, 246}, {247, 248, 249, 250, 251, 252}, {253, 254, 255, 256, 257, 258}, {259, 260, 261, 262, 263, 264}, {265, 266, 267, 268, 269, 270}, {271, 272, 273, 274, 275, 276}, {277, 278, 279, 280, 281, 282}, {283, 284, 285, 286, 287, 288}, {289, 290, 291, 292, 293, 294}, {295, 296, 297, 298, 299, 300}];
succ =  [{48, 41, 37, 36, 35, 34, 33, 29, 24, 17}, {48, 47, 46, 45, 34, 33, 32, 31, 29, 28, 26}, {47, 43, 37, 33, 32, 31, 29, 27, 23, 22}, {49, 46, 45, 44, 42, 36, 31, 11}, {49, 48, 46, 45, 44, 43, 42, 35, 34, 33, 31, 26}, {50, 47, 46, 45, 33, 32, 31, 29, 28, 27}, {48, 45, 41, 35, 31, 29, 28, 17}, {49, 46, 36, 32, 31, 29, 27, 24}, {50, 45, 44, 34, 28, 27, 17}, {47, 46, 45, 42, 41, 35, 33, 32, 28}, {48, 47, 35, 33, 28, 27}, {46, 43, 32, 29, 27}, {44, 43, 36, 34, 31, 27}, {44, 42, 31, 22}, {47, 45, 43, 42, 41, 38, 31}, {46, 44, 42, 38, 35, 33}, {47, 46, 43, 42, 40, 32}, {43, 42, 41, 40, 38, 31}, {49, 38, 26}, {43, 42, 41, 40, 34}, {44, 42, 34, 33}, {45, 41, 39, 34}, {44, 39, 38, 35}, {45, 28}, {43, 41, 32}, {27}, {41, 40, 39}, {43, 40, 38}, {44, 42, 39}, {42, 39}, {39}, {38}, {39}, {38}, {40}, {39}, {38}, {}, {}, {}, {}, {}, {}, {}, {}, {}, {}, {}, {}, {}];
n_opt = 300;
dur = [2, 3, 4, 8, 13, 19, 3, 4, 6, 11, 12, 19, 6, 7, 11, 12, 14, 20, 5, 6, 7, 9, 14, 20, 2, 5, 11, 16, 17, 18, 2, 5, 6, 11, 16, 19, 1, 8, 9, 12, 14, 17, 1, 3, 6, 7, 17, 19, 1, 6, 9, 12, 14, 17, 6, 9, 10, 12, 19, 20, 4, 7, 9, 14, 17, 20, 6, 10, 11, 12, 13, 14, 4, 5, 14, 15, 19, 20, 4, 10, 11, 15, 16, 17, 5, 10, 11, 12, 13, 17, 9, 11, 13, 17, 18, 19, 5, 6, 11, 13, 15, 18, 12, 13, 14, 18, 19, 20, 3, 10, 11, 13, 14, 16, 2, 5, 7, 8, 9, 16, 7, 9, 10, 14, 15, 19, 3, 4, 5, 8, 14, 15, 3, 5, 7, 9, 12, 16, 4, 6, 7, 12, 14, 15, 1, 5, 12, 13, 14, 18, 3, 4, 5, 12, 13, 14, 2, 8, 9, 13, 17, 19, 7, 10, 12, 13, 14, 15, 3, 4, 9, 12, 14, 20, 2, 3, 9, 13, 14, 19, 1, 3, 6, 9, 19, 20, 8, 11, 12, 14, 15, 16, 2, 11, 15, 16, 17, 20, 4, 8, 16, 17, 19, 20, 6, 8, 11, 13, 14, 16, 2, 3, 5, 9, 12, 14, 1, 2, 10, 11, 16, 19, 1, 13, 16, 18, 19, 20, 2, 3, 4, 9, 13, 16, 1, 8, 14, 16, 17, 20, 5, 10, 12, 13, 14, 18, 2, 6, 7, 8, 14, 20, 1, 2, 5, 6, 7, 13, 1, 2, 8, 9, 16, 17, 1, 5, 6, 9, 10, 19, 6, 7, 8, 10, 14, 19, 1, 3, 8, 12, 15, 19, 1, 2, 8, 12, 13, 15, 3, 4, 5, 10, 14, 16, 1, 3, 6, 10, 16, 18];
rreq = [|17, 15, 15, 15, 13, 13, 10, 9, 9, 9, 9, 9, 7, 6, 6, 5, 5, 5, 18, 18, 18, 18, 18, 18, 17, 15, 11, 9, 7, 5, 9, 9, 7, 7, 6, 5, 9, 8, 7, 7, 6, 5, 14, 13, 12, 11, 10, 9, 11, 10, 9, 8, 5, 5, 17, 17, 12, 10, 9, 6, 11, 10, 9, 7, 7, 6, 4, 3, 3, 3, 2, 2, 18, 18, 16, 15, 14, 13, 20, 19, 18, 17, 15, 15, 11, 9, 8, 6, 4, 3, 14, 10, 8, 8, 4, 1, 19, 17, 14, 12, 11, 8, 12, 11, 11, 10, 9, 8, 16, 15, 12, 10, 7, 5, 3, 3, 3, 2, 2, 1, 5, 4, 4, 4, 4, 4, 3, 2, 2, 2, 2, 2, 4, 4, 4, 3, 3, 2, 17, 17, 12, 9, 7, 3, 13, 13, 13, 13, 13, 13, 16, 15, 12, 9, 8, 7, 15, 14, 13, 11, 8, 7, 17, 17, 17, 16, 16, 16, 16, 15, 15, 12, 11, 10, 12, 12, 12, 12, 12, 12, 13, 12, 12, 11, 10, 9, 18, 17, 17, 16, 16, 16, 14, 10, 9, 6, 5, 3, 17, 15, 12, 12, 10, 7, 15, 14, 14, 14, 13, 13, 16, 14, 14, 13, 12, 12, 20, 14, 13, 8, 4, 1, 9, 9, 7, 6, 6, 4, 13, 11, 10, 7, 4, 3, 9, 9, 9, 9, 9, 9, 9, 7, 7, 5, 5, 3, 18, 18, 18, 18, 18, 18, 15, 15, 15, 15, 15, 15, 14, 14, 12, 8, 7, 5, 13, 11, 10, 9, 7, 6, 18, 16, 15, 15, 13, 12, 17, 12, 10, 6, 3, 1, 15, 13, 12, 11, 10, 10, 4, 4, 4, 4, 4, 4, 7, 5, 5, 4, 4, 3
 |7, 7, 5, 4, 4, 2, 17, 13, 10, 10, 6, 6, 11, 10, 7, 6, 6, 4, 13, 13, 13, 13, 13, 13, 16, 15, 15, 15, 14, 14, 17, 17, 14, 13, 12, 9, 13, 12, 10, 8, 6, 6, 17, 15, 14, 11, 8, 5, 14, 14, 13, 12, 10, 10, 17, 17, 15, 15, 14, 13, 17, 16, 16, 16, 14, 14, 16, 14, 14, 14, 12, 12, 19, 18, 18, 17, 16, 16, 13, 12, 12, 11, 10, 9, 13, 11, 11, 8, 7, 7, 12, 11, 9, 9, 8, 7, 11, 11, 8, 7, 5, 4, 14, 14, 14, 13, 13, 13, 1, 1, 1, 1, 1, 1, 14, 13, 12, 11, 10, 9, 14, 12, 12, 9, 8, 7, 13, 12, 11, 9, 8, 6, 19, 18, 16, 16, 14, 14, 18, 17, 17, 15, 14, 14, 15, 12, 12, 9, 9, 6, 18, 18, 18, 17, 17, 17, 16, 14, 13, 12, 11, 11, 6, 6, 4, 4, 3, 2, 5, 5, 4, 4, 3, 3, 8, 8, 8, 8, 7, 7, 18, 16, 14, 14, 12, 9, 17, 14, 12, 10, 10, 7, 17, 16, 12, 10, 8, 5, 9, 6, 6, 5, 3, 3, 17, 12, 11, 8, 7, 2, 12, 11, 10, 9, 7, 7, 11, 10, 9, 9, 8, 7, 5, 4, 3, 3, 2, 2, 10, 10, 8, 4, 2, 1, 6, 6, 6, 6, 5, 5, 18, 17, 16, 16, 14, 14, 6, 6, 4, 3, 3, 1, 10, 9, 8, 7, 7, 6, 7, 6, 5, 5, 4, 2, 19, 15, 12, 7, 6, 2, 13, 11, 10, 8, 7, 5, 6, 4, 3, 2, 1, 1, 6, 6, 6, 6, 6, 6, 16, 13, 13, 11, 9, 8, 16, 15, 13, 12, 11, 10
 |18, 18, 18, 18, 18, 18, 10, 8, 5, 4, 2, 2, 4, 3, 3, 2, 2, 1, 14, 14, 14, 14, 14, 14, 9, 9, 9, 9, 9, 9, 16, 14, 13, 11, 7, 5, 15, 13, 13, 11, 9, 5, 14, 14, 14, 14, 14, 14, 5, 5, 5, 5, 5, 5, 13, 12, 10, 10, 8, 8, 17, 15, 15, 13, 12, 10, 5, 5, 5, 5, 5, 5, 13, 12, 12, 12, 12, 12, 16, 16, 15, 15, 15, 14, 18, 17, 17, 16, 16, 16, 17, 15, 13, 13, 11, 11, 18, 17, 17, 15, 14, 14, 9, 6, 5, 5, 3, 3, 15, 15, 13, 11, 11, 9, 18, 15, 13, 10, 8, 6, 17, 16, 15, 10, 10, 7, 11, 9, 8, 5, 4, 1, 19, 13, 13, 8, 7, 4, 18, 13, 10, 8, 6, 3, 8, 8, 6, 6, 4, 4, 10, 10, 10, 10, 10, 10, 20, 19, 18, 18, 18, 17, 14, 13, 10, 7, 5, 5, 12, 11, 10, 9, 8, 8, 20, 17, 14, 8, 6, 5, 11, 9, 7, 7, 6, 4, 18, 16, 15, 15, 14, 13, 18, 15, 14, 12, 8, 6, 12, 11, 11, 11, 10, 9, 10, 9, 8, 5, 5, 3, 11, 9, 8, 7, 7, 6, 9, 8, 8, 8, 8, 8, 20, 17, 16, 14, 11, 9, 6, 5, 5, 5, 5, 5, 13, 12, 12, 11, 10, 10, 13, 13, 12, 11, 10, 10, 16, 15, 13, 11, 10, 9, 7, 6, 6, 5, 5, 5, 18, 17, 16, 15, 15, 14, 17, 16, 15, 14, 13, 13, 17, 17, 15, 15, 14, 13, 20, 20, 20, 20, 20, 20, 16, 16, 14, 14, 13, 11, 12, 10, 10, 9, 8, 7, 18, 17, 17, 17, 16, 16
 |19, 18, 17, 17, 17, 16, 11, 7, 6, 5, 4, 1, 13, 13, 13, 12, 11, 11, 16, 14, 11, 9, 6, 5, 8, 8, 7, 5, 4, 1, 18, 17, 14, 12, 8, 4, 18, 14, 14, 11, 10, 8, 19, 16, 13, 11, 7, 6, 9, 8, 6, 4, 2, 1, 17, 14, 12, 8, 7, 2, 13, 13, 13, 13, 12, 12, 5, 4, 3, 2, 3, 2, 19, 18, 18, 17, 16, 15, 17, 17, 14, 12, 11, 9, 14, 13, 12, 10, 7, 6, 20, 19, 19, 18, 17, 17, 12, 12, 12, 12, 12, 12, 16, 15, 14, 13, 9, 8, 18, 16, 16, 15, 13, 13, 12, 10, 9, 9, 7, 5, 11, 11, 10, 9, 8, 6, 13, 13, 11, 8, 5, 5, 18, 17, 17, 16, 16, 15, 4, 4, 4, 4, 4, 4, 17, 15, 14, 13, 9, 8, 17, 14, 12, 8, 6, 4, 15, 13, 10, 7, 5, 5, 16, 14, 12, 11, 8, 7, 4, 4, 3, 2, 1, 1, 15, 14, 9, 8, 4, 3, 18, 14, 11, 9, 7, 6, 17, 15, 12, 12, 10, 7, 17, 15, 12, 12, 11, 8, 19, 13, 11, 10, 6, 1, 16, 15, 14, 14, 13, 11, 17, 16, 15, 15, 14, 14, 15, 14, 13, 13, 13, 12, 15, 15, 15, 15, 15, 15, 17, 14, 11, 8, 6, 2, 14, 12, 9, 8, 4, 3, 10, 9, 8, 7, 6, 6, 12, 11, 11, 9, 8, 7, 14, 13, 10, 8, 7, 5, 9, 7, 7, 7, 6, 5, 17, 14, 11, 10, 6, 5, 16, 15, 14, 13, 12, 12, 7, 6, 5, 4, 2, 2, 1, 1, 1, 1, 1, 1, 4, 4, 3, 4, 4, 4, 12, 11, 10, 9, 5, 4|];